0 0 0 0
0 1 2 0
0 2 2 0
0 3 0 0
0 4 2 3
0 5 0 3
0 6 0 7
0 7 1 10
0 8 0 7
0 9 2 12
0 10 2 8
0 11 1 8
0 12 2 3
0 13 2 15
0 14 2 15
0 15 2 16
0 16 1 10
0 17 2 16
0 18 2 18
0 19 2 27
0 20 2 25
0 21 2 25
0 22 0 35
0 23 2 23
0 24 0 36
0 25 1 38
0 26 1 34
0 27 1 33
0 28 0 38
0 29 0 38
0 30 0 39
0 31 0 41
